(set-info :smt-lib-version 2.6)
(set-logic QF_UF)
(set-info :category "crafted")
(set-info :status unsat)
(declare-sort S1 0)
(declare-fun x0 () S1)
(declare-fun x1 () S1)
(declare-fun y0 () S1)
(declare-fun y1 () S1)
(declare-fun z1 () S1)
(declare-fun z0 () S1)
(assert (or (and (= x0 y0)(= y0 x1)(not(= x0 x1)))(and (= x0 z0)(= z0 x1)(not (= x0 x1)))))
(check-sat)
(exit)